4 
5  06 29 52 
6  07 22 37 52 
7  07 22 37 52 
8  07 22 37 52 
9  07 22 37 52 
10  07 22 37 52 
11  07 22 37 52 
12  07 22 37 52 
13  08 23 38 53 
14  05 20 35 49 
15  04 19 34 49 
16  04 19 34 49 
17  04 19 34 49 
18  07 22 41 58 
19  12 27 42 57 
20  12 27 42 57 
21  14 29 44 59 
22  13 28 43 58 
23  22 
0 
